Traveling Salesman Problem/TSP_generados/Aleatorio1620391601_16.tsp
NAME: Aleatorio1620391601_16.tsp
COMMENT: Randomly generated scenario
TYPE: TSP
DIMENSION: 16
EDGE_WEIGHT_TYPE: ATT
NODE_COORD_SECTION
1 17.72 5.76
2 36.89 10.38
3 48.32 25.94
4 32.93 0.2
5 4.0 2.58
6 8.49 5.78
7 16.75 18.9
8 23.11 39.39
9 7.63 49.13
10 26.99 29.91
11 47.28 24.2
12 28.23 43.9
13 48.69 6.69
14 11.48 18.3
15 18.94 5.96
16 10.34 19.1
