Traveling Salesman Problem/TSP_generados/Aleatorio1620391601_16.opt.tour
NAME: Aleatorio1620391601_16.opt.tour
COMMENT: Optimal solution for Aleatorio1620391601_16 (189.97318380094586)
TYPE: TOUR
DIMENSION: 16
TOUR_SECTION
1 6 5 16 14 7 9 12 8 10 3 11 13 2 4 15
-1
EOF
